certificates/rado_a6_c62_N12.cnf
c Rad2 upper bound instance: x1 + 6*x2 - x3 = 62, interval [1,12]
p cnf 12 48
1 5 11 0
-1 -5 -11 0
1 11 12 0
-1 -11 -12 0
2 6 11 0
-2 -6 -11 0
2 12 0
-2 -12 0
1 3 10 0
-1 -3 -10 0
3 7 11 0
-3 -7 -11 0
2 4 10 0
-2 -4 -10 0
4 8 11 0
-4 -8 -11 0
3 5 10 0
-3 -5 -10 0
5 9 11 0
-5 -9 -11 0
4 6 10 0
-4 -6 -10 0
6 10 11 0
-6 -10 -11 0
5 7 10 0
-5 -7 -10 0
7 11 0
-7 -11 0
6 8 10 0
-6 -8 -10 0
8 11 12 0
-8 -11 -12 0
1 9 0
-1 -9 0
7 9 10 0
-7 -9 -10 0
2 9 10 0
-2 -9 -10 0
8 10 0
-8 -10 0
3 9 11 0
-3 -9 -11 0
9 10 11 0
-9 -10 -11 0
4 9 12 0
-4 -9 -12 0
10 12 0
-10 -12 0
