certificates/rado_a6_c62_N12.drat
-12 0
2 0
10 0
-8 0
-4 0
-9 0
11 0
0
